%chk=mobley_1278715.chk
%mem=1GB
%NProcShared=1

#HF/6-31G* SCF=tight Pop=MK iop(6/33=2) iop(6/42=6) opt

mobley_1278715

0 1
C  0.206000  -0.363000 -0.655000
C  -0.205000 0.363000  0.655000 
CL -1.216000 1.823000  0.325000 
CL -1.166000 -0.709000 1.744000 
CL 1.233000  0.918000  1.595000 
CL 1.167000  0.709000  -1.744000
CL -1.233000 -0.918000 -1.595000
CL 1.216000  -1.823000 -0.325000

